(declare-const |havoc:3:24:729| Int)
(declare-const havoc Int)
(declare-const |param1':709:720:730| Int)
(declare-const |param0':708:722:732| Int)
(declare-const |return':707:721:731| Int)
(assert (and (<= (- havoc) 0) (<= (+ havoc -3) 0) (<= (- |havoc:3:24:729|) 0)
               (<= (+ |havoc:3:24:729| -23) 0)
               (= (+ |return':707:721:731| (- |param1':709:720:730|) -1) 0)
               (= |param0':708:722:732| 0) (<= (+ (- havoc) 2) 0)
               (<= (+ havoc -2) 0) (<= (+ (- |havoc:3:24:729|) 2) 0)
               (<= (+ |havoc:3:24:729| -2) 0)
               (not (= (+ |return':707:721:731| -7) 0))))
(check-sat)
